p cnf 112 245
-1 -2 0
-1 -3 0
-2 -3 0
-4 -5 0
-4 -6 0
-5 -6 0
-7 -8 0
-7 -9 0
-8 -9 0
-10 -11 0
-10 -12 0
-11 -12 0
-13 -14 0
-13 -15 0
-14 -15 0
-16 -17 0
-16 -18 0
-17 -18 0
-19 -20 0
-19 -21 0
-20 -21 0
-22 -23 0
-22 -24 0
-23 -24 0
-25 -26 0
-25 -27 0
-26 -27 0
-28 -29 0
-28 -30 0
-29 -30 0
-31 -32 0
-31 -33 0
-32 -33 0
-34 -35 0
-34 -36 0
-35 -36 0
-37 -38 0
-37 -39 0
-38 -39 0
-40 -41 0
-40 -42 0
-41 -42 0
-43 -44 0
-43 -45 0
-44 -45 0
-46 -47 0
-46 -48 0
-47 -48 0
-49 -50 0
-49 -51 0
-50 -51 0
-52 -53 0
-52 -54 0
-53 -54 0
-55 -56 0
-55 -57 0
-56 -57 0
-58 -59 0
-58 -60 0
-59 -60 0
-61 -62 0
-61 -63 0
-62 -63 0
-64 -65 0
-64 -66 0
-65 -66 0
-67 -68 0
-67 -69 0
-68 -69 0
-70 -71 0
-70 -72 0
-71 -72 0
-73 -74 0
-73 -75 0
-74 -75 0
-76 -77 0
-76 -78 0
-77 -78 0
-79 -80 0
-79 -81 0
-80 -81 0
-82 -83 0
-82 -84 0
-83 -84 0
1 22 43 64 0
2 23 44 65 0
3 24 45 66 0
4 25 46 67 0
5 26 47 68 0
6 27 48 69 0
7 28 49 70 0
8 29 50 71 0
9 30 51 72 0
10 31 52 73 0
11 32 53 74 0
12 33 54 75 0
13 34 55 76 0
14 35 56 77 0
15 36 57 78 0
16 37 58 79 0
17 38 59 80 0
18 39 60 81 0
19 40 61 82 0
20 41 62 83 0
21 42 63 84 0
-85 -86 -87 -88 -89 -90 0
-85 -86 -87 -88 -89 -91 0
-85 -86 -87 -89 -90 -91 0
-85 -86 -87 -88 -90 -91 0
-85 -86 -88 -89 -90 -91 0
-85 -87 -88 -89 -90 -91 0
-86 -87 -88 -89 -90 -91 0
-92 -93 -94 -95 -96 -97 0
-92 -93 -94 -95 -96 -98 0
-92 -93 -94 -96 -97 -98 0
-92 -93 -94 -95 -97 -98 0
-92 -93 -95 -96 -97 -98 0
-92 -94 -95 -96 -97 -98 0
-93 -94 -95 -96 -97 -98 0
-99 -100 -101 -102 -103 -104 0
-99 -100 -101 -102 -103 -105 0
-99 -100 -101 -103 -104 -105 0
-99 -100 -101 -102 -104 -105 0
-99 -100 -102 -103 -104 -105 0
-99 -101 -102 -103 -104 -105 0
-100 -101 -102 -103 -104 -105 0
-106 -107 -108 -109 -110 -111 0
-106 -107 -108 -109 -110 -112 0
-106 -107 -108 -110 -111 -112 0
-106 -107 -108 -109 -111 -112 0
-106 -107 -109 -110 -111 -112 0
-106 -108 -109 -110 -111 -112 0
-107 -108 -109 -110 -111 -112 0
-1 85 0
-2 85 0
-3 85 0
-85 1 2 3 0
-4 86 0
-5 86 0
-6 86 0
-86 4 5 6 0
-7 87 0
-8 87 0
-9 87 0
-87 7 8 9 0
-10 88 0
-11 88 0
-12 88 0
-88 10 11 12 0
-13 89 0
-14 89 0
-15 89 0
-89 13 14 15 0
-16 90 0
-17 90 0
-18 90 0
-90 16 17 18 0
-19 91 0
-20 91 0
-21 91 0
-91 19 20 21 0
-22 92 0
-23 92 0
-24 92 0
-92 22 23 24 0
-25 93 0
-26 93 0
-27 93 0
-93 25 26 27 0
-28 94 0
-29 94 0
-30 94 0
-94 28 29 30 0
-31 95 0
-32 95 0
-33 95 0
-95 31 32 33 0
-34 96 0
-35 96 0
-36 96 0
-96 34 35 36 0
-37 97 0
-38 97 0
-39 97 0
-97 37 38 39 0
-40 98 0
-41 98 0
-42 98 0
-98 40 41 42 0
-43 99 0
-44 99 0
-45 99 0
-99 43 44 45 0
-46 100 0
-47 100 0
-48 100 0
-100 46 47 48 0
-49 101 0
-50 101 0
-51 101 0
-101 49 50 51 0
-52 102 0
-53 102 0
-54 102 0
-102 52 53 54 0
-55 103 0
-56 103 0
-57 103 0
-103 55 56 57 0
-58 104 0
-59 104 0
-60 104 0
-104 58 59 60 0
-61 105 0
-62 105 0
-63 105 0
-105 61 62 63 0
-64 106 0
-65 106 0
-66 106 0
-106 64 65 66 0
-67 107 0
-68 107 0
-69 107 0
-107 67 68 69 0
-70 108 0
-71 108 0
-72 108 0
-108 70 71 72 0
-73 109 0
-74 109 0
-75 109 0
-109 73 74 75 0
-76 110 0
-77 110 0
-78 110 0
-110 76 77 78 0
-79 111 0
-80 111 0
-81 111 0
-111 79 80 81 0
-82 112 0
-83 112 0
-84 112 0
-112 82 83 84 0
